Route #1: 19 29 28 32 24 48 
Route #2: 14 7 18 47 26 4 2 
Route #3: 27 16 11 30 6 34 
Route #4: 41 45 39 15 
Route #5: 40 49 5 43 20 44 
Route #6: 10 1 21 17 42 8 
Route #7: 22 38 46 35 23 13 3 
Route #8: 31 12 33 37 9 25 36 
cost 1410.6